
n_res = 6;
rcap = [68, 69, 67, 66, 747, 656];
rtype = [1, 1, 1, 1, 2, 2];
n_tasks = 50;
modes =  [{1, 2, 3}, {4, 5, 6}, {7, 8, 9}, {10, 11, 12}, {13, 14, 15}, {16, 17, 18}, {19, 20, 21}, {22, 23, 24}, {25, 26, 27}, {28, 29, 30}, {31, 32, 33}, {34, 35, 36}, {37, 38, 39}, {40, 41, 42}, {43, 44, 45}, {46, 47, 48}, {49, 50, 51}, {52, 53, 54}, {55, 56, 57}, {58, 59, 60}, {61, 62, 63}, {64, 65, 66}, {67, 68, 69}, {70, 71, 72}, {73, 74, 75}, {76, 77, 78}, {79, 80, 81}, {82, 83, 84}, {85, 86, 87}, {88, 89, 90}, {91, 92, 93}, {94, 95, 96}, {97, 98, 99}, {100, 101, 102}, {103, 104, 105}, {106, 107, 108}, {109, 110, 111}, {112, 113, 114}, {115, 116, 117}, {118, 119, 120}, {121, 122, 123}, {124, 125, 126}, {127, 128, 129}, {130, 131, 132}, {133, 134, 135}, {136, 137, 138}, {139, 140, 141}, {142, 143, 144}, {145, 146, 147}, {148, 149, 150}];
succ =  [{9, 7, 4}, {27, 24, 23, 22, 21, 18, 14, 13}, {27, 25, 24, 23, 19, 16, 14}, {50, 27, 25, 24, 19, 18}, {50, 27, 25, 24, 19, 18}, {50, 31, 27, 22, 12}, {50, 26, 23, 22, 19, 17}, {50, 30, 23, 22, 20, 17}, {38, 31, 24, 23, 22, 20}, {49, 30, 27, 24, 14}, {50, 49, 31, 29, 26, 25, 24}, {30, 26, 17}, {48, 38, 25, 19}, {50, 45, 38, 33, 29, 28, 26}, {49, 39, 38, 27, 26, 24}, {49, 46, 39, 38, 37, 33, 32, 31, 28}, {47, 39, 38, 33, 29, 24}, {49, 45, 38, 29, 28, 26}, {49, 39, 37, 35, 33, 31, 29}, {49, 45, 39, 33, 32, 26}, {49, 42, 38, 28, 26}, {49, 48, 46, 45, 37, 34, 29}, {49, 48, 45, 37, 35, 29}, {46, 45, 44, 42, 37, 28}, {43, 37, 36, 32, 30}, {47, 46, 44, 43, 37, 36, 34}, {45, 43, 42, 41, 35}, {48, 43, 41, 35}, {43, 41, 32}, {47, 46, 33}, {47, 45, 41, 36}, {44, 42, 40}, {42, 41, 40}, {41, 40}, {36}, {40}, {41}, {40}, {40}, {}, {}, {}, {}, {}, {}, {}, {}, {}, {}, {}];
n_opt = 150;
dur = [4, 27, 30, 8, 13, 20, 17, 27, 30, 1, 9, 14, 9, 23, 28, 1, 2, 23, 3, 4, 15, 1, 3, 4, 18, 24, 28, 1, 13, 23, 1, 9, 19, 11, 22, 26, 21, 27, 30, 1, 2, 7, 16, 19, 25, 13, 25, 29, 14, 19, 20, 19, 21, 28, 10, 16, 21, 9, 17, 23, 12, 23, 25, 1, 2, 20, 5, 6, 21, 1, 2, 20, 1, 28, 29, 13, 22, 24, 3, 9, 19, 20, 25, 29, 1, 10, 16, 13, 14, 29, 10, 11, 26, 6, 12, 30, 1, 2, 8, 9, 18, 22, 6, 13, 27, 15, 21, 27, 7, 8, 28, 14, 19, 25, 15, 22, 26, 15, 27, 29, 10, 15, 19, 7, 8, 22, 19, 28, 29, 7, 18, 23, 1, 9, 11, 6, 26, 27, 2, 8, 9, 3, 7, 8, 7, 12, 16, 9, 11, 21];
rreq = [|26, 16, 8, 23, 19, 17, 28, 26, 23, 9, 7, 6, 22, 17, 7, 20, 14, 3, 11, 8, 4, 19, 19, 15, 21, 21, 19, 23, 21, 14, 7, 5, 4, 11, 7, 4, 26, 18, 5, 28, 24, 17, 23, 9, 2, 20, 18, 10, 25, 24, 22, 20, 19, 17, 10, 8, 7, 21, 20, 20, 16, 10, 8, 23, 17, 11, 12, 4, 3, 23, 18, 11, 7, 4, 4, 8, 4, 4, 11, 10, 5, 20, 8, 2, 9, 8, 5, 9, 6, 4, 5, 5, 3, 8, 7, 6, 8, 6, 5, 19, 18, 18, 26, 26, 22, 15, 11, 6, 15, 11, 8, 27, 22, 19, 15, 14, 13, 18, 11, 6, 23, 21, 21, 9, 7, 5, 22, 18, 11, 11, 10, 10, 20, 11, 6, 23, 16, 11, 11, 11, 4, 25, 20, 20, 4, 3, 2, 16, 14, 13
 |24, 24, 24, 25, 21, 18, 5, 5, 5, 26, 19, 13, 21, 20, 19, 9, 8, 1, 17, 16, 16, 16, 14, 10, 15, 13, 6, 24, 23, 23, 25, 24, 24, 9, 9, 6, 7, 6, 4, 23, 11, 6, 18, 15, 6, 30, 30, 30, 23, 22, 21, 16, 13, 10, 25, 24, 23, 26, 26, 26, 8, 6, 5, 9, 7, 5, 17, 12, 7, 18, 16, 12, 16, 14, 3, 13, 10, 6, 12, 8, 2, 17, 13, 13, 13, 13, 13, 11, 10, 3, 13, 10, 9, 14, 11, 8, 25, 12, 10, 14, 11, 9, 22, 20, 15, 7, 7, 7, 25, 24, 21, 29, 26, 24, 29, 24, 19, 25, 24, 24, 11, 10, 7, 17, 11, 3, 11, 11, 11, 18, 17, 17, 20, 18, 16, 25, 21, 21, 18, 18, 18, 29, 23, 18, 26, 24, 23, 24, 17, 12
 |18, 17, 17, 21, 12, 7, 10, 9, 7, 25, 22, 22, 13, 12, 12, 13, 6, 6, 19, 19, 12, 14, 13, 10, 5, 3, 3, 17, 10, 5, 13, 13, 13, 29, 29, 28, 17, 13, 1, 23, 14, 13, 15, 11, 7, 24, 23, 22, 21, 19, 11, 22, 20, 19, 27, 24, 21, 23, 10, 3, 30, 26, 24, 25, 17, 14, 17, 15, 11, 22, 19, 17, 25, 24, 23, 26, 24, 22, 15, 14, 14, 25, 24, 23, 18, 18, 18, 5, 5, 5, 17, 15, 14, 9, 8, 2, 13, 11, 5, 22, 21, 20, 18, 15, 9, 24, 23, 22, 21, 21, 21, 13, 13, 13, 18, 11, 8, 18, 18, 17, 27, 24, 22, 24, 23, 23, 19, 17, 14, 14, 7, 3, 6, 6, 6, 28, 27, 27, 22, 21, 17, 9, 8, 8, 13, 12, 8, 21, 12, 5
 |19, 15, 9, 26, 23, 18, 23, 22, 22, 6, 5, 2, 2, 1, 1, 23, 22, 21, 25, 14, 8, 10, 10, 10, 28, 28, 27, 24, 23, 20, 12, 12, 12, 21, 20, 17, 14, 12, 12, 21, 18, 15, 27, 20, 14, 9, 8, 8, 12, 12, 10, 17, 17, 17, 17, 16, 16, 15, 11, 10, 13, 12, 12, 22, 22, 22, 16, 15, 12, 21, 15, 15, 27, 23, 21, 5, 5, 5, 17, 12, 10, 14, 13, 5, 22, 17, 9, 21, 10, 8, 16, 15, 14, 16, 12, 10, 26, 21, 19, 24, 18, 18, 23, 22, 22, 17, 17, 16, 28, 26, 24, 15, 14, 14, 18, 17, 17, 18, 18, 18, 15, 13, 13, 9, 7, 4, 15, 14, 14, 8, 7, 1, 26, 25, 25, 21, 21, 18, 13, 13, 13, 9, 9, 7, 19, 10, 6, 20, 16, 16
 |28, 25, 16, 28, 25, 22, 21, 20, 20, 16, 13, 12, 27, 26, 25, 13, 11, 8, 21, 14, 10, 5, 5, 5, 19, 18, 16, 14, 13, 12, 16, 15, 15, 20, 19, 18, 21, 18, 13, 19, 15, 6, 14, 8, 5, 18, 15, 12, 22, 17, 11, 27, 14, 8, 17, 11, 9, 25, 11, 3, 23, 20, 15, 28, 27, 27, 25, 24, 24, 27, 23, 22, 16, 11, 8, 25, 23, 18, 22, 14, 9, 9, 7, 6, 16, 16, 16, 21, 8, 1, 10, 10, 9, 18, 15, 14, 20, 18, 17, 22, 15, 14, 26, 20, 17, 26, 25, 25, 8, 7, 7, 23, 11, 10, 14, 13, 11, 28, 24, 17, 22, 20, 20, 25, 16, 11, 18, 11, 11, 28, 25, 25, 27, 23, 22, 17, 13, 13, 17, 16, 12, 8, 7, 6, 27, 13, 12, 5, 3, 1
 |24, 19, 19, 12, 9, 4, 20, 18, 15, 21, 16, 8, 10, 8, 2, 15, 15, 4, 16, 14, 12, 10, 8, 7, 19, 19, 19, 8, 6, 5, 6, 6, 4, 21, 21, 19, 15, 14, 12, 15, 13, 12, 11, 10, 8, 14, 13, 8, 29, 28, 28, 15, 13, 11, 19, 8, 1, 14, 9, 7, 12, 9, 8, 16, 14, 14, 28, 24, 22, 23, 16, 9, 23, 18, 13, 23, 13, 9, 16, 15, 15, 7, 6, 5, 27, 19, 13, 22, 17, 3, 10, 10, 6, 23, 20, 18, 25, 16, 7, 26, 22, 17, 21, 16, 12, 23, 16, 12, 18, 18, 6, 22, 22, 22, 16, 8, 8, 19, 14, 12, 7, 5, 2, 13, 12, 12, 19, 15, 10, 27, 27, 27, 18, 14, 13, 24, 21, 20, 25, 22, 20, 25, 23, 20, 13, 13, 3, 20, 12, 10|];